\* Problem: Unknown *\

Maximize
 obj: + xp_0_0 + xp_0_1 + xp_1_0 + xp_2_0 + xp_2_1 + xp_2_2 + xp_3_0
 + xp_3_1 + xp_4_0 + xp_5_0 + xp_6_0 + xp_6_1 + xp_7_0 + xp_8_0 + xp_9_0
 + xp_10_0 + xp_10_1 + xp_10_2 + xp_11_0 + xp_12_0 + xp_12_1 + xp_13_0
 + xp_14_0 + xp_15_0 + xp_15_1 + xp_16_0 + xp_17_0 + xp_17_1 + xp_18_0
 + xp_18_1 + xp_19_0 + xp_20_0 + xp_21_0 + xp_21_1 + xp_21_2 + xp_21_3
 + xp_22_0 + xp_22_1 + xp_22_2 + xp_23_0 + xp_24_0 + xp_24_1 + xp_25_0
 + xp_25_1 + xp_26_0 + xp_27_0 + xp_28_0 + xp_28_1 + xp_29_0 + xp_29_1
 + xp_30_0 + xp_31_0 + xp_31_1 + xp_32_0 + xp_33_0 + xp_34_0 + xp_35_0
 + xp_36_0 + xp_37_0 + xp_38_0 + xp_38_1 + xp_39_0 + xp_40_0 + xp_40_1
 + xp_41_0 + xp_42_0 + xp_42_1 + xp_42_2 + xp_42_3 + xp_43_0 + xp_44_0
 + xp_45_0 + xp_46_0 + xp_47_0 + xp_48_0 + xp_48_1 + xp_48_2 + xp_49_0
 + xp_50_0 + xp_51_0 + xp_52_0 + xp_52_1 + xp_53_0 + xp_54_0 + xp_55_0
 + xp_56_0 + xp_57_0 + xp_58_0 + xp_58_1 + xp_59_0 + xp_60_0 + xp_60_1
 + xp_61_0 + xp_62_0 + xp_63_0 + xp_63_1 + xp_64_0 + xp_65_0

Subject To
 r_1: + xp_53_0 + xp_51_0 + xp_42_3 + xp_42_2 + xp_40_0 + xp_35_0
 + xp_33_0 <= 149.23665791776
 r_2: + xp_58_1 + xp_24_1 + xp_15_1 <= 153.637538779731
 r_3: + xp_56_0 + xp_21_0 + xp_12_0 <= 153.637538779731
 r_4: + xp_65_0 + xp_50_0 + xp_45_0 + xp_24_0 + xp_21_2 + xp_15_0
 + xp_10_1 + xp_10_0 + xp_5_0 + xp_2_2 + xp_2_1 <= 140.768902785674
 r_5: + xp_38_0 + xp_31_1 + xp_17_0 + xp_14_0 <= 153.637538779731
 r_6: + xp_52_1 + xp_22_2 + xp_22_0 + xp_21_3 + xp_21_1 + xp_13_0
 + xp_12_1 + xp_3_0 + xp_2_0 <= 148.340353833193
 r_7: + xp_60_1 + xp_48_2 + xp_48_1 + xp_46_0 + xp_42_1 + xp_42_0
 + xp_40_1 + xp_0_0 <= 150.204731574158
 r_8: 0 xp_0_0 <= 149.23665791776
 r_9: + xp_64_0 + xp_63_1 + xp_29_0 + xp_25_1 + xp_24_1 + xp_21_0
 + xp_6_0 <= 149.23665791776
 r_10: + xp_63_0 <= 148.340353833193
 r_11: + xp_60_0 + xp_38_1 + xp_31_0 <= 153.637538779731
 r_12: + xp_62_0 + xp_61_0 + xp_60_1 + xp_22_1 + xp_10_2 + xp_3_1
 <= 148.340353833193
 r_13: + xp_64_0 + xp_59_0 + xp_58_1 + xp_56_0 + xp_29_1 + xp_29_0
 + xp_24_1 + xp_21_0 + xp_20_0 + xp_15_1 + xp_12_0 <= 149.23665791776
 r_14: + xp_57_0 + xp_53_0 + xp_48_1 + xp_42_3 + xp_42_2 + xp_42_1
 + xp_35_0 + xp_18_0 <= 149.23665791776
 r_15: + xp_63_1 + xp_58_0 <= 150.204731574158
 r_16: + xp_65_0 + xp_55_0 + xp_53_0 + xp_51_0 + xp_50_0 + xp_42_3
 + xp_10_1 + xp_10_0 <= 153.637538779731
 r_17: + xp_58_1 + xp_54_0 + xp_52_1 + xp_36_0 + xp_31_1
 <= 140.768902785674
 r_18: + xp_52_0 + xp_21_2 + xp_2_2 + xp_2_1 <= 153.637538779731
 r_19: + xp_60_0 + xp_48_0 <= 149.23665791776
 r_20: + xp_50_0 + xp_49_0 + xp_48_2 + xp_48_1 + xp_46_0 + xp_45_0
 + xp_21_2 + xp_21_1 + xp_10_1 + xp_2_2 <= 153.637538779731
 r_21: + xp_47_0 + xp_26_0 + xp_22_1 + xp_17_1 + xp_17_0 + xp_10_2
 + xp_7_0 + xp_3_1 <= 153.637538779731
 r_22: + xp_61_0 + xp_60_1 + xp_43_0 + xp_42_1 + xp_42_0 + xp_40_1
 + xp_38_0 <= 148.340353833193
 r_23: + xp_56_0 + xp_52_1 + xp_52_0 + xp_41_0 + xp_38_1 + xp_34_0
 + xp_31_0 <= 148.340353833193
 r_24: + xp_62_0 + xp_44_0 + xp_42_3 + xp_42_2 + xp_40_0 + xp_39_0
 + xp_21_3 + xp_21_1 + xp_12_1 + xp_10_2 + xp_2_0 <= 153.637538779731
 r_25: + xp_62_0 + xp_44_0 + xp_42_2 + xp_40_0 + xp_37_0 + xp_35_0
 + xp_33_0 + xp_10_2 <= 153.637538779731
 r_26: + xp_42_3 + xp_39_0 + xp_36_0 + xp_32_0 + xp_31_1
 <= 153.637538779731
 r_27: + xp_56_0 + xp_52_0 + xp_34_0 + xp_31_0 + xp_30_0
 <= 153.637538779731
 r_28: + xp_60_1 + xp_60_0 + xp_48_2 + xp_48_0 + xp_42_0 + xp_29_0
 + xp_27_0 + xp_25_1 + xp_24_1 + xp_21_0 + xp_18_1 + xp_8_0 + xp_6_0
 <= 148.340353833193
 r_29: + xp_29_1 + xp_28_0 + xp_25_0 + xp_22_0 + xp_6_1 + xp_0_1
 <= 150.204731574158
 r_30: + xp_63_0 + xp_28_1 + xp_26_0 + xp_24_0 + xp_23_0 + xp_22_2
 + xp_22_1 + xp_21_3 + xp_21_2 + xp_21_1 + xp_17_1 <= 149.23665791776
 r_31: + xp_63_1 + xp_58_0 + xp_28_0 + xp_22_0 + xp_19_0 + xp_17_0
 + xp_15_0 + xp_14_0 + xp_13_0 + xp_12_1 <= 150.204731574158
 r_32: + xp_48_1 + xp_46_0 + xp_42_1 + xp_40_1 + xp_29_1 + xp_25_0
 + xp_20_0 + xp_18_0 + xp_16_0 + xp_15_1 + xp_12_0 + xp_6_1
 <= 150.204731574158
 r_33: + xp_60_1 + xp_48_2 + xp_42_0 + xp_18_1 + xp_17_1 + xp_11_0
 <= 150.204731574158
 r_34: + xp_26_0 + xp_23_0 + xp_22_1 + xp_21_2 + xp_21_1 + xp_17_1
 + xp_10_2 + xp_10_1 + xp_7_0 + xp_4_0 + xp_3_1 + xp_2_2
 <= 149.23665791776
 r_35: + xp_60_0 + xp_48_0 + xp_8_0 + xp_6_1 + xp_6_0 + xp_1_0 + xp_0_1
 <= 149.23665791776
 r_36: + xp_63_0 + xp_28_1 + xp_24_0 + xp_22_2 + xp_21_3 + xp_10_0
 + xp_9_0 + xp_5_0 + xp_3_0 + xp_2_1 + xp_2_0 + xp_0_0
 <= 149.23665791776

Bounds
 0 <= xp_0_0 <= 4.75759483708484
 0 <= xp_0_1 <= 23.7879741854242
 0 <= xp_1_0 <= 23.1292302849048
 0 <= xp_2_0 <= 12.7357154100425
 0 <= xp_2_1 <= 8.49047694002833
 0 <= xp_2_2 <= 4.24523847001417
 0 <= xp_3_0 <= 9.85676058555013
 0 <= xp_3_1 <= 4.92838029277507
 0 <= xp_4_0 <= 28.9847316228553
 0 <= xp_5_0 <= 23.1292302849048
 0 <= xp_6_0 <= 8.8808436958917
 0 <= xp_6_1 <= 17.7616873917834
 0 <= xp_7_0 <= 22.5436801511097
 0 <= xp_8_0 <= 25.6178183535338
 0 <= xp_9_0 <= 17.8592790807492
 0 <= xp_10_0 <= 8.34408940657957
 0 <= xp_10_1 <= 2.78136313552652
 0 <= xp_10_2 <= 5.56272627105304
 0 <= xp_11_0 <= 26.2033684873288
 0 <= xp_12_0 <= 5.70911380450181
 0 <= xp_12_1 <= 11.4182276090036
 0 <= xp_13_0 <= 15.3706910121203
 0 <= xp_14_0 <= 23.2756178183535
 0 <= xp_15_0 <= 24.1539430190461
 0 <= xp_15_1 <= 4.83078860380922
 0 <= xp_16_0 <= 27.6672438218165
 0 <= xp_17_0 <= 12.1501652762474
 0 <= xp_17_1 <= 12.1501652762474
 0 <= xp_18_0 <= 6.92900991657485
 0 <= xp_18_1 <= 13.8580198331497
 0 <= xp_19_0 <= 20.0550920824807
 0 <= xp_20_0 <= 23.8611679521486
 0 <= xp_21_0 <= 3.19612781363135
 0 <= xp_21_1 <= 3.19612781363135
 0 <= xp_21_2 <= 3.19612781363135
 0 <= xp_21_3 <= 9.58838344089406
 0 <= xp_22_0 <= 3.87926963639225
 0 <= xp_22_1 <= 3.87926963639225
 0 <= xp_22_2 <= 15.517078545569
 0 <= xp_23_0 <= 24.0075554855974
 0 <= xp_24_0 <= 6.24586809381394
 0 <= xp_24_1 <= 12.4917361876279
 0 <= xp_25_0 <= 14.2727845112545
 0 <= xp_25_1 <= 14.2727845112545
 0 <= xp_26_0 <= 19.0303793483394
 0 <= xp_27_0 <= 15.3706910121203
 0 <= xp_28_0 <= 21.1042027388635
 0 <= xp_28_1 <= 4.22084054777271
 0 <= xp_29_0 <= 11.491421375728
 0 <= xp_29_1 <= 11.491421375728
 0 <= xp_30_0 <= 28.3991814890603
 0 <= xp_31_0 <= 3.04974028018259
 0 <= xp_31_1 <= 15.248701400913
 0 <= xp_32_0 <= 16.1026286793641
 0 <= xp_33_0 <= 19.3231544152369
 0 <= xp_34_0 <= 23.2756178183535
 0 <= xp_35_0 <= 15.9562411459153
 0 <= xp_36_0 <= 18.4448292145443
 0 <= xp_37_0 <= 14.6387533448764
 0 <= xp_38_0 <= 12.1013694317645
 0 <= xp_38_1 <= 6.05068471588226
 0 <= xp_39_0 <= 15.517078545569
 0 <= xp_40_0 <= 16.5905871241933
 0 <= xp_40_1 <= 3.31811742483866
 0 <= xp_41_0 <= 21.0798048166221
 0 <= xp_42_0 <= 12.2965528096962
 0 <= xp_42_1 <= 4.0988509365654
 0 <= xp_42_2 <= 4.0988509365654
 0 <= xp_42_3 <= 4.0988509365654
 0 <= xp_43_0 <= 17.420116480403
 0 <= xp_44_0 <= 18.5912167479931
 0 <= xp_45_0 <= 15.3706910121203
 0 <= xp_46_0 <= 21.5189674169684
 0 <= xp_47_0 <= 20.494254682827
 0 <= xp_48_0 <= 9.66157720761845
 0 <= xp_48_1 <= 9.66157720761845
 0 <= xp_48_2 <= 9.66157720761845
 0 <= xp_49_0 <= 15.2243034786715
 0 <= xp_50_0 <= 16.5417912797104
 0 <= xp_51_0 <= 24.7394931528412
 0 <= xp_52_0 <= 22.8120572957658
 0 <= xp_52_1 <= 4.56241145915316
 0 <= xp_53_0 <= 28.6919565559578
 0 <= xp_54_0 <= 28.2527939556115
 0 <= xp_55_0 <= 22.1045175507634
 0 <= xp_56_0 <= 15.517078545569
 0 <= xp_57_0 <= 18.2984416810955
 0 <= xp_58_0 <= 18.9327876593735
 0 <= xp_58_1 <= 9.46639382968676
 0 <= xp_59_0 <= 28.3991814890603
 0 <= xp_60_0 <= 12.0037777427987
 0 <= xp_60_1 <= 6.00188887139934
 0 <= xp_61_0 <= 26.4961435542263
 0 <= xp_62_0 <= 28.2527939556115
 0 <= xp_63_0 <= 22.080119628522
 0 <= xp_63_1 <= 4.41602392570439
 0 <= xp_64_0 <= 28.545569022509
 0 <= xp_65_0 <= 20.6406422162758

End
